(set-logic ALL)
(declare-fun i1 () Int)
(declare-fun it218 () Int)
(declare-fun i2 () Int)
(declare-fun it219 () Int)
(declare-fun i3 () Int)
(declare-fun it220 () Int)
(declare-fun i4 () Int)
(declare-fun it221 () Int)
(declare-fun i5 () Int)
(declare-fun it222 () Int)
(declare-fun i6 () Int)
(declare-fun it223 () Int)
(declare-fun it224 () Int)
(declare-fun it225 () Int)
(declare-fun it226 () Int)
(declare-fun it227 () Int)
(declare-fun it228 () Int)
(declare-fun it229 () Int)
(declare-fun it230 () Int)
(declare-fun it231 () Int)
(declare-fun it232 () Int)
(declare-fun it233 () Int)
(declare-fun it234 () Int)
(declare-fun it235 () Int)
(declare-fun it174 () Int)
(declare-fun it240 () Int)
(declare-fun it241 () Int)
(declare-fun it242 () Int)
(declare-fun it243 () Int)
(declare-fun it244 () Int)
(declare-fun it245 () Int)
(declare-fun it250 () Int)
(declare-fun it251 () Int)
(declare-fun it252 () Int)
(declare-fun it253 () Int)
(declare-fun it254 () Int)
(declare-fun it255 () Int)
(declare-fun it260 () Int)
(declare-fun it261 () Int)
(declare-fun it262 () Int)
(declare-fun it263 () Int)
(declare-fun it264 () Int)
(declare-fun it265 () Int)
(declare-fun it272 () Int)
(declare-fun it273 () Int)
(declare-fun it274 () Int)
(declare-fun it275 () Int)
(declare-fun it276 () Int)
(declare-fun it277 () Int)
(declare-fun it280 () Int)
(declare-fun it281 () Int)
(declare-fun it282 () Int)
(declare-fun it283 () Int)
(declare-fun it284 () Int)
(declare-fun it285 () Int)
(declare-fun it288 () Int)
(declare-fun it289 () Int)
(declare-fun it290 () Int)
(declare-fun it291 () Int)
(declare-fun it292 () Int)
(declare-fun it293 () Int)
(declare-fun it296 () Int)
(declare-fun it297 () Int)
(declare-fun it298 () Int)
(declare-fun it299 () Int)
(declare-fun it300 () Int)
(declare-fun it301 () Int)
(assert (= (+ i1 (- 1)) 0))
(assert (= (+ it218 (- 2)) 0))
(assert (= (+ it219 (* i2 (- 1)) (- 1)) 0))
(assert (= (+ it220 (* i3 (- 1))) 0))
(assert (= (+ it221 (* i4 (- 1))) 0))
(assert (= (+ it222 (* i5 (- 1))) 0))
(assert (= (+ it223 (* i6 (- 1))) 0))
(assert (and (>= (+ it220 (- 3)) 0) (= (+ it218 (- 2)) 0)))
(assert (= (+ it224 (- 5)) 0))
(assert (= (+ (* it219 (- 1)) it225 (- 2)) 0))
(assert (= (+ it226 (* it220 (- 1))) 0))
(assert (= it227 0))
(assert (= (+ it228 (* it222 (- 1))) 0))
(assert (= (+ it229 (* it223 (- 1))) 0))
(assert (and (= (+ it224 (- 5)) 0) (>= (+ it226 (* it227 (- 1)) (- 2)) 0)))
(assert (= (+ it230 (- 7)) 0))
(assert (= (+ it231 (* it225 (- 1)) (- 2)) 0))
(assert (= (+ it232 (* it226 (- 1))) 0))
(assert (= (+ it233 (* it227 (- 1))) 0))
(assert (= it234 0))
(assert (= (+ it235 (* it229 (- 1))) 0))
(assert (let ((a!1 (+ (+ 0 it232)
              (* (exp 2 it174) (+ 0 (- 2)))
              (+ 0 (* it233 (- 1)))
              (* (exp 2 (+ it174 (- 1))) (+ 0 it234) (+ 0 (- 2)))))
      (a!2 (>= (+ (+ it232 (* it233 (- 1)) (* it234 (- 2))) (- 4)) 0))
      (a!3 (>= (+ (+ it232 (* it233 (- 1)) (* it234 (- 2))) (- 3)) 0)))
  (and (>= a!1 (+ 0 0))
       a!2
       (>= (+ (* it230 (- 1)) 7) 0)
       (>= (+ a!1 (+ 0 1)) (+ 0 0))
       (>= (+ it230 (- 7)) 0)
       a!3
       (>= (+ it174 (- 1)) 0))))
(assert (= (+ (* it230 (- 1)) it240) 0))
(assert (= (+ it241 (* it174 (- 6)) (* it231 (- 1))) 0))
(assert (= (+ (* it232 (- 1)) it242) 0))
(assert (= (+ (* it233 (- 1)) it243) 0))
(assert (let ((a!1 (+ (+ 0 it244)
              (* (exp 2 it174) (+ 0 it234) (+ 0 (- 1)))
              (* (exp 2 (+ it174 1)) (+ 0 (- 1)))
              (+ 0 2))))
  (= a!1 (+ 0 0))))
(assert (let ((a!1 (+ (+ 0 it245)
              (* (exp 2 it174) (+ 0 (- 2)))
              (* (exp 2 (+ it174 (- 1))) (+ 0 it234) (+ 0 (- 2)))
              (+ 0 2))))
  (= a!1 (+ 0 0))))
(assert (and (>= (+ (* it244 2) (* it242 (- 1)) it243 2) 0) (= (+ it240 (- 7)) 0)))
(assert (= (+ it250 (- 5)) 0))
(assert (= (+ (* it241 (- 1)) it251 (- 2)) 0))
(assert (= (+ (* it242 (- 1)) it252) 0))
(assert (= (+ (* it243 (- 1)) it253 (- 1)) 0))
(assert (= (+ (* it244 (- 1)) it254) 0))
(assert (= (+ (* it245 (- 1)) it255) 0))
(assert (and (= (+ it250 (- 5)) 0) (>= (+ it252 (* it253 (- 1)) (- 2)) 0)))
(assert (= (+ it260 (- 7)) 0))
(assert (= (+ (* it251 (- 1)) it261 (- 2)) 0))
(assert (= (+ (* it252 (- 1)) it262) 0))
(assert (= (+ it263 (* it253 (- 1))) 0))
(assert (= it264 0))
(assert (= (+ (* it255 (- 1)) it265) 0))
(assert (and (= (+ it260 (- 7)) 0)
     (>= (+ (* it263 (- 1)) (* it264 (- 2)) it262 (- 3)) 0)))
(assert (= (+ it272 (- 8)) 0))
(assert (= (+ it273 (* it261 (- 1)) (- 1)) 0))
(assert (= (+ it274 (* it262 (- 1))) 0))
(assert (= (+ (* it263 (- 1)) it275) 0))
(assert (= (+ it276 (* it264 (- 1))) 0))
(assert (= (+ it277 (* it265 (- 1))) 0))
(assert (and (>= (+ (* it276 (- 2)) it274 (* it275 (- 1)) (- 4)) 0)
     (= (+ it272 (- 8)) 0)))
(assert (= (+ it280 (- 11)) 0))
(assert (= (+ (* it273 (- 1)) it281 (- 1)) 0))
(assert (= (+ it282 (* it274 (- 1))) 0))
(assert (= (+ it283 (* it275 (- 1))) 0))
(assert (= (+ (* it276 (- 1)) it284) 0))
(assert (= (+ (* it277 (- 1)) it285) 0))
(assert (= (+ it280 (- 11)) 0))
(assert (= (+ it288 (- 13)) 0))
(assert (= (+ it289 (* it281 (- 1)) (- 2)) 0))
(assert (= (+ (* it282 (- 1)) it290) 0))
(assert (= (+ (* it283 (- 1)) it291) 0))
(assert (= (+ it292 (* it284 (- 1))) 0))
(assert (= (+ (* it284 (- 2)) it293 (- 1)) 0))
(assert (= (+ it288 (- 13)) 0))
(assert (= (+ it296 (- 7)) 0))
(assert (= (+ (* it289 (- 1)) it297 (- 2)) 0))
(assert (= (+ it298 (* it290 (- 1))) 0))
(assert (= (+ it299 (* it291 (- 1))) 0))
(assert (= (+ (* it293 (- 1)) it300) 0))
(assert (= (+ it301 (* it293 (- 1))) 0))
(assert (let ((a!1 (>= (+ (+ it298 (* it299 (- 1)) (* it300 (- 2))) (- 3)) 0))
      (a!2 (>= (+ (+ it298 (* it299 (- 1)) (* it300 (- 2))) (- 4)) 0)))
  (and (>= (+ it296 (- 7)) 0)
       a!1
       a!2
       (>= (+ (* it296 (- 1)) 7) 0)
       (<= (+ (* it300 2) 4) 0))))
(check-sat)
